5319
1500000
999002
999002
999002
999002
999002
999002
998631
998631
998631
998631
998631
998631
998631
998506
998506
996509
996509
996509
996509
996509
996509
996509
996509
996509
996509
996509
996509
996509
996509
996509
992991
992991
992991
992991
992991
992991
992991
992991
992991
992991
992991
992991
992991
992991
992991
992991
990769
990769
990769
990769
990769
990769
990769
990769
990769
990769
990769
990769
990769
990769
990769
990769
990769
990769
990769
990769
980738
980738
980738
980738
980738
980738
980738
980706
980706
980706
980706
980706
980706
980706
978417
978417
978417
978417
978417
978417
978417
978417
978417
978417
978417
978417
978417
978380
978380
978380
978380
978380
978380
978380
978380
978380
978380
978380
978380
978380
978380
978380
977684
977684
977684
977684
977684
977684
977684
977684
977684
977684
977684
977684
977684
977684
977684
977328
977328
977328
977328
977328
973446
973446
973446
973446
973446
973446
973446
973446
973446
973320
973320
973320
973320
973320
973320
973320
973320
973320
973320
973320
971446
971446
971446
971446
971446
971446
971446
971446
971446
971446
967119
967119
967119
967119
967119
967119
967119
967119
967119
967119
967119
967119
967119
967119
963085
963085
963085
963085
963085
963085
963085
963085
963085
963085
963085
963085
963085
963085
963085
963085
963085
963085
960570
960570
960570
960570
960570
960570
960570
960570
960570
960570
960570
960570
960570
960570
959875
959875
959875
959875
959875
959875
959875
959875
959875
959864
959864
959864
959864
959864
959864
959864
959864
959864
959864
959864
959864
959864
959864
959864
959864
959864
956352
956352
956352
956352
956352
956352
956352
956352
956352
956352
956352
956352
956352
956352
956352
956352
956352
956352
956352
956352
954970
954970
954970
954970
954970
952626
951665
951665
951665
951665
951665
951665
951665
951665
951665
951665
951665
951665
951390
951390
951390
951390
951390
951390
951390
951390
951390
951390
951390
950460
950460
950460
950460
950460
950334
950334
950334
950334
950334
950334
950334
950334
950334
950334
950312
950312
950312
950312
950312
950312
950312
950312
950312
950312
950312
950312
950312
950312
950312
950312
949566
949566
949566
949566
949566
949566
949566
949566
949566
949566
949566
949566
949566
949566
949566
949566
949566
949566
949566
949566
946267
946267
946267
946267
946267
946267
946267
946267
946267
946267
943746
943746
943746
943746
943746
943746
943746
943746
943746
943746
943746
943746
943746
943746
939209
939209
939209
939209
939209
939209
939209
939209
939209
939209
939209
939209
939209
938243
938243
938243
938243
938243
938243
938243
938243
938243
938243
937564
937564
937564
937564
937564
937564
937564
937564
937564
937564
937564
937564
937564
937564
937564
937564
936906
936906
936906
936906
936906
936906
936906
934685
934685
934685
934685
934685
934685
934685
934685
934685
934685
934685
934685
934685
934685
934685
934685
934685
934685
933819
933819
933819
933819
933819
933819
933819
933819
933819
933819
933819
933819
933819
933819
933819
933819
933819
933819
933819
932431
932431
932431
932431
932431
932431
932431
932431
932431
932431
930519
930519
930519
930519
930519
930519
930519
930519
930519
930519
930519
930519
930519
930519
929734
929734
929734
929734
929734
929734
929734
929734
929734
929734
929734
929734
929734
929734
929734
929734
929734
928428
928428
928428
927769
927769
927769
927769
926815
926815
926815
926815
922073
922073
922073
922073
922073
921018
921018
921018
921018
921018
916555
916555
916555
916555
916555
916555
916555
916555
916555
916555
916555
916555
916555
916555
916555
916555
916555
916555
913849
913849
913849
913849
913849
913849
913849
913849
913849
913849
913849
913849
913849
910812
910812
910812
910812
910812
910812
910812
910812
910812
910812
910812
910812
910812
910812
910044
910044
910044
910044
910044
910044
910044
910044
910044
910044
910044
905770
905770
905770
905770
905770
904211
904211
904211
904211
904211
904211
904211
904211
904211
904211
904211
904211
904211
904211
904211
904211
904211
904211
901064
901064
901064
901064
901064
901064
901064
901064
901064
901064
901064
901064
901064
900385
900385
900385
900385
900385
900385
900385
899372
899372
899372
899372
899372
899372
894929
894929
894929
894929
894929
894929
894929
894929
894929
894929
894582
894582
894582
894582
894582
894582
894548
894548
894548
894548
894548
894548
894548
894548
892524
892524
892524
892524
892524
892311
892311
891025
891025
891025
891025
891025
891025
888085
888085
888085
888085
888085
888085
888085
888085
888085
888085
888085
888085
886591
886591
886591
885890
885890
885890
885890
885304
885304
885304
885304
885304
885304
885304
885304
885304
885304
885304
885304
885304
885304
885304
885304
885304
885304
882761
882761
882761
882761
882761
882761
882761
882761
882761
882761
882761
882761
882761
882761
882761
882761
882761
882761
882761
881487
881487
881487
881487
881487
881487
881487
881487
881487
881487
881487
881487
881487
881336
881336
881336
880369
880369
880369
880369
880369
880369
880369
880369
880369
880369
880369
880369
880369
880369
880369
880369
880369
879910
879910
879910
879910
879910
879910
879910
879910
879910
879910
879910
879910
879910
879910
879860
879860
879860
879860
879860
879860
879860
879860
879860
879860
879860
879860
879860
879860
879860
879860
879860
879860
879860
879860
879400
879400
879400
879400
879400
879400
879400
879400
879400
879400
879400
879400
879400
879400
879400
879400
879400
878757
878757
878757
878757
878757
878757
878664
878664
878664
878207
878207
878207
878207
878207
876626
876626
876626
876626
876626
874029
874029
874029
874029
874029
874029
874029
874029
874029
874029
874029
874029
873031
873031
873031
871561
871561
871561
871561
871561
871561
871561
871561
871561
871561
871561
871561
871561
871561
871561
871561
871561
870552
870552
870552
870552
870552
870552
870552
870552
870552
866976
866976
863831
863831
863831
863831
863831
863831
863831
863831
863831
863831
863831
863831
862833
862833
862833
862833
862833
862833
862833
862833
860597
860597
860597
860597
860597
860597
860597
860597
860597
856230
856230
856230
856230
856230
856230
856230
856230
856230
856230
856230
856230
856230
856230
856230
856230
856230
854232
854232
854232
854232
854232
854232
854232
854232
854232
854073
854073
854073
854073
853974
853974
853974
853974
853974
853974
853974
851138
851138
851138
851138
851138
851138
851138
851138
851138
851138
850190
850190
850190
850190
850190
850190
850190
850190
850190
850190
850190
849309
849309
849309
849309
849309
849309
849309
849309
849309
849309
849309
849309
849309
849309
849309
849309
849309
849309
845378
845378
845378
845378
845378
845378
845378
845378
842511
842511
842511
842511
842511
842511
840913
840913
840913
840913
840913
840913
840913
840913
840913
839593
839593
839593
839593
839593
839593
839593
839593
839593
839593
839593
839593
839593
839414
839414
839414
839414
839414
839414
839414
839414
839414
839414
839414
839414
839414
839414
839414
839414
839414
839414
837654
837654
837654
837654
837654
837654
837654
837654
837654
837654
837654
837654
837654
837654
837654
837654
837654
837654
836257
836257
836257
836257
836257
836257
836257
836257
836257
836257
836257
836257
836257
834683
834683
834683
834683
834683
834683
828958
828958
828958
828958
828958
828958
828958
828958
828958
828958
828958
828958
828958
828958
828958
828958
828958
828958
828958
828958
827910
827910
827910
827910
827910
827910
827910
827910
827910
827910
827910
827910
827910
827910
827910
827910
827910
827910
826929
826929
826929
826929
826929
826929
826929
826929
826929
826929
826929
826929
826929
826929
826929
826929
826929
826929
825650
825650
825650
825650
825650
825650
825650
825650
825650
825650
825650
825650
824761
824761
824761
824761
824761
824761
824761
824761
824761
823074
823074
823074
823074
823074
823074
823074
823074
823074
823074
823074
823074
823074
823074
823074
823074
823074
823074
823074
823074
821246
821246
821246
821246
821246
821246
821246
821246
821246
821246
821246
821246
821246
821246
821246
821246
821246
819751
819751
819751
819751
819751
812150
812150
812150
812150
812150
812150
812150
812150
812150
812150
812150
812150
812150
812150
811222
811222
811222
811222
811222
811222
811222
811222
811222
811222
811222
807603
807603
807603
807603
807603
807603
807603
807603
807603
806780
806780
806780
806780
806780
806780
806780
806780
806780
806780
806780
806780
806780
806780
806780
805983
805983
805983
805983
805983
805983
805983
805983
805983
805983
805983
805983
805983
805783
805783
805783
805783
805783
805783
805783
805783
805783
805783
803371
803371
803371
803371
803371
803371
803371
803371
803371
803371
803371
803371
803371
803371
803371
803371
803371
803371
801789
801789
801789
801789
801301
801301
801301
801301
801301
801301
801301
801301
801301
801301
801301
801301
797668
797668
797668
797668
797668
797668
797668
797668
797668
797668
797668
797668
797668
797668
797668
797668
797668
797668
795121
795121
795121
795121
795121
795121
795121
795121
795121
795121
795121
795121
795121
795121
795121
795121
795121
795121
795121
794525
794525
794525
794525
794525
794525
794525
794525
794525
794525
794525
794525
794525
794525
794525
794525
794525
794525
794525
794202
794202
791491
791491
791491
791491
791491
791491
791491
791491
791491
791491
791491
791491
791491
791491
791491
790448
790448
790448
790448
790448
790448
790448
790448
790448
790448
790448
790448
790448
790448
790131
790131
790131
790131
788586
788586
788586
788586
788586
788586
788586
788586
788586
788586
788586
788586
788586
788586
788586
788586
788586
783620
783620
783620
783620
783620
783199
783199
783199
783199
783199
783199
783199
783199
783199
783199
783199
783199
783199
783199
783199
783199
783199
783199
783199
783199
780858
780858
780858
779382
779382
779382
779382
779382
779382
779382
779382
779382
779382
779382
779382
777103
777103
777103
777103
777103
777103
777103
777103
777103
777103
777103
777103
777103
777103
777103
775067
775067
775067
775067
774049
774049
774049
774049
773721
773721
773721
773721
773721
773721
773721
773721
773721
773721
773721
773721
773721
773721
773721
773721
770096
761007
758565
758565
756331
756331
756331
756331
756291
756291
756291
756291
756291
756291
756291
756291
755001
755001
755001
752002
752002
752002
752002
752002
752002
749202
749202
749202
749202
749202
749202
749202
749202
749202
749202
748841
748841
748841
748841
748841
748841
748841
748841
748841
748841
748841
748841
748841
748841
748841
748841
748841
748841
748841
748841
743653
743653
743653
743653
743653
743653
743653
743653
743653
743653
743653
743653
743653
743653
743653
743653
743425
743425
743425
743425
738576
738576
738576
738576
738576
738576
738576
735852
735852
735852
735852
735852
735852
735852
735852
735852
735852
735852
735852
735852
735852
735852
735852
735852
735852
735181
735181
735181
735181
735181
735181
735181
734511
734511
734511
734511
734511
734511
734511
734511
734511
734511
734511
726824
726824
726824
726824
726824
726824
718848
718848
718848
718848
718848
718848
718848
715654
715654
715654
715654
715654
715654
715654
715654
715654
715654
715654
715654
715654
715654
715654
714101
714101
714101
714101
714101
714101
714101
714101
714101
714101
714101
714101
714101
714101
714069
714069
714069
714069
714069
714069
714069
714069
713508
713508
713508
713508
713508
713508
713508
713508
713508
713508
713508
713508
713508
713508
713508
713508
713508
713508
712460
712460
712460
712460
712460
712460
712460
712460
712460
712460
712460
712460
712460
712460
712460
712460
712460
708570
708570
708570
708570
708570
708570
708570
708570
708570
708570
708570
708492
708492
708492
708492
708492
708492
708492
708492
708492
708492
707451
707451
707451
707451
707451
707451
707451
707451
707451
707451
707451
707451
707451
707451
707451
707451
707451
707451
707451
704407
704407
704407
704407
704407
704407
704407
704407
704407
704407
704407
704407
704407
704407
704407
701854
701854
694255
694255
694255
688650
684462
684462
684462
684462
684462
684462
684462
684462
684462
684462
684462
684028
684028
684028
684028
684028
684028
684028
684028
684028
684028
684028
684028
684028
684028
684028
684028
684028
684028
684028
683625
683625
683625
683625
683625
683625
683625
683625
683625
683625
683625
683625
683625
683625
683625
683625
682013
682013
682013
682013
682013
682013
682013
682013
682013
682013
675612
675612
675612
675612
675612
675612
675612
675612
675612
675612
675612
675612
672298
672298
672298
672298
672298
672298
672298
672298
672298
672298
672298
672298
672298
672298
672298
672298
672298
667717
660289
660289
660289
660289
660289
660289
651822
651725
651725
651725
651725
651725
651725
651725
651725
651725
651725
651725
651725
651161
651161
651161
651161
651161
651161
651161
651161
648278
648278
648278
648278
648278
648278
648051
648051
648051
648051
648051
648051
648051
648051
647148
647123
647123
647123
647123
647123
647123
647123
647123
647123
647123
647123
647123
647123
647123
647123
644068
644068
644068
644068
644068
644068
644068
644068
644068
644068
644068
644068
644068
644068
644068
644068
644068
644068
643930
643930
643930
643930
643930
643930
643930
643930
643930
643930
643930
643930
643930
643930
643930
643930
643930
643930
643930
643930
643146
643146
643146
643146
643146
643146
643146
643146
643146
643146
643146
643146
643146
643146
643146
643146
643146
643146
643146
643146
642859
642859
642859
642859
642859
642859
642859
642859
642859
641313
641313
641313
641313
641313
641313
641313
641313
641313
641313
641313
641313
641313
641313
629519
629519
629519
629519
629519
629519
629519
629519
629519
627201
627201
627201
627201
627201
627201
627201
627201
627201
627201
627201
627201
627201
627201
627201
626090
626090
626090
626090
626090
626090
626090
626090
626090
626090
626090
626090
626090
625658
625658
625658
625658
625658
623830
623830
623830
623830
623830
623830
623830
619563
619563
619563
619563
619563
619563
619563
619563
619563
619563
619563
619563
618031
618031
618031
618031
618031
618031
618031
618031
618031
618031
618031
618031
618031
618031
618031
618031
618031
618031
617379
617379
617379
617379
617379
617379
617379
617379
617379
617379
617379
617379
617379
617235
617235
617057
617057
617057
617057
617057
617057
617057
617057
616975
616975
616975
616975
615321
615321
615321
615321
613459
613459
613459
613459
613459
613459
613459
613459
613459
613459
613459
613459
613459
613459
613459
611430
611430
611430
611430
611430
611430
611430
611430
611430
611430
611430
611430
611430
611430
611430
611430
611430
610911
610911
610911
610911
610911
610911
610911
610911
610911
610911
610911
610911
610911
610911
610911
610911
610911
610911
610911
610145
610145
610145
610145
610145
610145
610145
610145
610145
610145
610145
610145
610145
610145
610145
610145
610145
610145
610145
609506
609506
609506
609506
609506
609506
609506
609506
609506
609506
609506
609506
609506
609506
609506
609506
609506
605102
605102
605102
605102
605102
605102
605102
605102
605102
605102
605102
605102
605102
604852
604852
604852
604852
604852
604852
604852
604852
604852
604852
604852
604755
604755
604755
604755
604755
604755
604755
604755
604755
604755
604755
604755
604755
604755
604755
602447
602447
602447
602447
602447
602447
602447
602447
602447
602447
602447
602447
602447
602447
602447
602132
602132
602132
602132
602132
602132
602132
602132
602132
602132
602132
602132
602132
602132
602132
602132
602132
602132
599344
599344
599344
599344
599344
599344
599344
599344
599344
599344
599344
599344
599344
599344
599260
599260
599260
599260
599260
599260
599260
599260
599260
599260
599260
599260
599260
599260
598876
598876
598876
598876
595260
595260
595260
595260
595260
595260
595260
593173
593173
593173
593173
593104
593104
593104
593104
593104
593104
593104
593104
593104
593104
593104
593104
593104
593104
593104
593104
593104
593104
593104
589029
589029
589029
589029
589029
589029
589029
589029
589029
589029
589029
589029
583800
583800
583800
583800
583800
583800
583800
583800
583800
583800
583800
583800
583800
583800
583800
583800
583800
583663
583663
583663
583663
583663
583663
583663
583663
583663
583498
582172
582172
582172
582172
582172
582172
582172
582172
582172
582172
582172
582172
581102
581102
581102
581102
581102
581102
581102
581102
581102
581026
581026
581026
579853
579853
579853
579819
579819
579175
579175
579175
579175
579175
579175
579175
579175
579175
579175
579175
579175
579175
577213
577213
577213
577213
575496
575496
575496
575496
575496
575496
575496
575496
575496
575496
575496
575496
575496
575496
575496
575496
575496
575496
574439
574439
574439
574439
574439
574439
574439
574439
573307
573307
573307
573307
573307
573307
573307
573307
573307
573307
573307
573307
573307
573307
573307
573307
573307
571120
571120
571120
571120
571120
571120
571120
571120
571120
571120
571120
571120
571120
571120
571120
567770
567770
567770
567770
567770
567770
567770
567770
567770
567770
567770
567770
567770
567770
567770
567770
567770
567770
567770
566404
566404
566404
566404
566404
566404
565880
565880
565880
565880
565880
565880
565880
565880
565818
565818
565818
565818
565818
565818
565818
557326
557326
557326
557326
557326
557326
557326
557326
555770
555770
555770
555770
555770
555770
555770
555770
555770
555770
555770
555770
555770
555770
555770
555770
555770
553439
553439
553439
553439
553439
553439
553439
553439
550378
550378
550378
550378
550378
550378
550378
550378
550378
550378
550378
550378
550378
550378
550378
550378
550378
548917
548917
548917
548917
548917
548917
548917
545788
545788
545788
545788
545788
545788
545788
545788
545788
545788
545788
545788
545788
545788
545788
545788
545788
541589
541589
541589
541589
541589
541589
541589
541589
538828
538828
538828
538828
538828
538828
538828
538828
538828
538828
538828
538397
538397
538397
538397
538397
538397
538397
538397
538397
538397
538397
538397
538397
538397
538397
538397
538397
538397
537404
537404
537404
537404
536929
536929
536929
536929
536929
536929
536929
536929
536929
536929
536929
536929
536929
536929
536929
536929
536929
536929
536929
536103
536103
536103
536103
536103
536103
534941
534941
534941
532404
532404
532404
532404
532404
532404
532404
532404
532404
532404
532274
532274
532274
532274
532274
532274
532274
532274
532274
532274
532274
532274
532274
527901
526488
526488
526488
526488
526488
526488
526488
526488
526488
525844
525844
525844
525844
525844
525790
525790
525790
525790
525790
525790
525790
525790
525790
525790
525790
525790
525790
525790
525790
525790
525572
525572
525572
525572
525369
525369
525369
525369
525369
525369
525369
525369
525369
521032
521032
521032
521032
521032
520719
520719
520719
520719
520719
520719
520719
520719
520719
520719
520719
520719
520719
520719
520353
520353
520353
520353
520353
520353
520353
520353
520353
520353
520353
520353
520353
520353
520353
520353
520353
520353
518156
516689
516689
516689
516689
516689
516689
516689
516689
516689
516251
516251
516251
516251
516251
516251
516251
516251
516251
516251
516251
516251
516251
516251
516251
516251
516251
515335
515335
515335
515335
515335
513849
513849
513849
513849
513849
513849
513849
513849
513849
513849
513849
513849
513849
513849
509650
509650
509650
509650
509650
509650
509650
509650
509650
509650
507725
507725
507725
507725
507725
507725
507725
507725
507725
507725
507725
507725
507725
507725
507725
507725
501272
501272
501272
500401
500401
500401
500401
500401
500401
500401
500401
500401
500401
500401
500401
498273
498273
498273
498273
498273
498273
498273
498273
498273
496047
496047
496047
496047
496047
496047
496047
496047
496047
496047
496047
496047
496047
496010
496010
496010
496010
496010
496010
496010
496010
496010
496010
496010
496010
496010
496010
496010
496010
496010
493721
493721
493721
493721
493721
493721
493721
493721
493721
493721
493721
493721
493721
493721
493721
490057
490057
490057
490057
490057
490057
490057
490057
490054
490054
490054
490054
490054
490054
490054
490054
490054
490054
490054
490054
490054
490054
490054
490054
490054
490054
490054
487556
487556
487556
487556
487556
487556
487556
487556
487556
487556
487556
487556
487556
487556
487556
487556
486268
486268
486268
486268
486268
486268
479292
478252
478020
478020
478020
478020
478020
478020
478020
478020
478020
478020
478020
478020
478020
478020
478020
478020
478020
478020
478020
478020
477675
477675
477675
475982
470128
470128
470128
470128
470128
470128
470128
470128
470128
470128
470128
470128
470128
470128
470128
470128
470128
470128
470128
469796
469796
469796
469796
469796
469796
469796
469796
469796
469796
467731
467731
467731
467731
467731
467731
467731
467731
467216
467216
467216
467216
467216
467216
467216
467216
467216
467216
467216
467189
467189
467189
466800
465432
465432
465432
465432
465432
465432
465432
465432
465432
465432
465432
465432
465432
465432
465432
465432
465432
465432
465432
465432
464689
464689
464689
464689
464689
464689
464689
464689
464689
462979
462979
462979
462979
462979
462979
462979
461713
461713
461713
461713
461713
461713
461713
461713
461713
461713
461713
461713
452421
452421
451737
451737
451737
451737
451737
451737
451737
451737
451737
451737
451737
451737
451737
451737
451737
451737
451737
451737
450414
450414
450414
450414
450414
450414
450414
450414
450414
450414
450414
450414
450414
450414
450414
450414
450414
450414
450414
450414
448875
448875
448875
448875
448875
448875
448875
448875
448875
448875
448875
448730
448730
448730
448730
448730
448730
448730
448730
448730
448730
448730
448730
448730
446566
446566
446566
446566
446566
446566
446566
446566
445392
445392
445301
445301
445301
445301
445301
445301
445301
445301
445301
445301
445301
445301
445301
445301
445301
445301
445301
445301
445301
439983
439983
439983
439983
439983
439983
439983
439983
439983
439983
439983
439983
439983
439983
439983
439983
439983
439983
439377
437035
437035
437035
437035
437035
437035
437035
437035
437035
437035
437035
437035
437035
437035
437035
437035
437035
437035
437035
437035
435916
435916
433820
433820
433820
433820
433820
433820
433820
433820
433820
433820
433820
433820
433820
433820
432017
432017
432017
432017
432017
432017
432017
432017
432017
432017
432017
432017
432017
432017
432017
432017
432017
432017
430023
430023
430023
430023
430023
427679
427679
427679
427679
427679
427679
427679
427679
427679
427679
427679
427679
427679
427679
427679
427679
427679
427679
427679
423612
423612
423612
423612
423612
423612
423612
423612
423612
423612
423612
423612
423612
420911
420911
420911
420911
420911
420911
420911
413494
413494
413494
413494
413494
413494
413494
413494
413494
413494
413494
413494
413494
413494
413494
413494
413494
413494
413494
409383
409383
409383
409383
409383
409383
409383
409383
409383
409383
409383
409383
409383
409383
409383
409383
409383
408541
408541
408541
408171
408171
408171
408171
408171
408171
408171
408171
407107
407107
407107
407107
407107
407107
407107
407107
402558
402558
402558
402558
402558
402558
402558
401765
401765
401765
401765
401765
401765
401537
401537
401537
401537
401537
401537
401537
401537
401537
401537
401537
401537
401537
401537
401537
401537
400791
400791
400791
400791
400791
400791
400791
400791
400328
400328
400328
400328
400328
399220
399220
399220
399220
399220
399220
399220
399220
399220
399220
399220
399220
399220
399220
398922
398922
398922
398922
398922
398922
398922
398922
398922
398922
398922
398922
398922
398922
398922
398922
398922
398922
397652
397652
397652
397652
395491
395491
395491
395491
395491
395491
395491
395491
395491
395491
395491
395491
395491
395491
395491
393189
391490
391490
391490
391490
385632
385632
385632
385632
385632
385632
385632
385632
385632
385632
378488
378488
378488
378488
378488
378488
378488
378488
378488
378488
378488
378488
378488
378488
378488
378488
378488
378488
378488
378488
377482
377482
377482
377482
377482
377482
377482
377482
377482
377482
377482
377482
376318
376318
376318
376318
376318
376318
376318
376318
376318
376318
376318
371551
371551
371551
371551
371551
369386
369386
369386
369386
369386
369386
369386
369386
369386
369386
369386
367107
366628
366628
366628
366628
366628
366628
366628
366628
366628
366628
366628
366628
366628
366628
366628
366628
366628
366628
364114
364114
364114
364114
364114
364114
364114
364114
364114
357304
357304
357304
357304
357304
357304
357304
357304
357304
357304
357304
357304
352406
352406
352406
352406
352406
352406
352385
352385
352385
352385
352385
352385
351887
351887
351887
351887
351887
351887
351887
351887
351887
351887
351887
351887
349445
349320
349320
349320
349320
349320
349320
349320
340371
340371
340371
340371
340371
340371
340371
340371
340371
339613
339613
339613
339613
339613
339613
339613
339613
339613
339613
339613
338411
338411
338411
338411
338359
338359
338359
338359
334886
334886
334886
334886
334886
334886
334886
334886
333028
333028
333028
333028
333028
333028
333028
333028
333028
333028
333028
333028
333028
333028
333028
333028
333028
329893
329893
329893
329893
329893
329893
329893
329893
329893
329893
329893
329893
329893
329893
329893
329893
329893
328278
328278
328278
328278
328278
328278
328278
328278
328278
328278
328278
328278
328278
328278
328278
328278
328278
328278
326386
326386
326386
326215
326215
326215
326215
326215
326215
326215
326215
326215
326215
326215
326215
326215
326215
326215
326215
323066
323066
323066
323066
323066
323066
323066
323066
323066
320014
320014
320014
320014
320014
320014
320014
320014
320014
320014
320014
320014
314351
314351
314351
314351
314351
314351
314351
314351
314351
312582
312582
312582
312582
312582
312582
312582
312582
312582
312582
312582
312582
312582
312582
312582
312582
311353
311353
311353
311353
311353
311353
311353
311353
308582
308582
308582
308582
308582
308582
308582
308582
308582
308582
308582
307448
307448
307448
307448
306975
306975
306975
306975
306768
306768
306768
306768
306768
306768
306768
306768
306768
306768
306768
306768
306768
306768
306768
306768
306768
305611
305611
305611
305611
305611
305611
305611
305611
305611
305611
305611
305611
305611
305611
301431
301431
301431
301431
301431
301431
301431
301431
301431
301431
301431
301431
301431
301431
301431
301431
301431
301431
299291
299291
299291
299291
299291
299291
299291
298961
298961
298961
298961
298961
298961
298961
298961
298961
297641
297641
297641
297641
297641
297641
297641
297641
297641
297641
297641
297641
297641
297641
297641
297641
297641
297641
295503
295503
295503
295503
295503
295503
295503
295503
295503
295503
295503
295503
295503
295503
295503
295503
295503
295503
294524
294524
294524
294524
294524
294524
294524
294524
294524
294524
294524
294524
294524
294524
294524
294524
294524
294524
294524
293864
293864
293864
293864
293864
289537
289537
289537
289537
289537
289537
289537
289537
289537
289537
289537
289537
289537
289537
289537
289537
287518
286884
286884
286884
286884
286884
286884
286884
286884
286884
284930
284930
284515
284515
281608
281608
281608
281608
280349
280349
280349
280349
280349
280349
280349
280349
280349
280349
280349
280349
280349
280349
280349
278844
278844
278844
278844
278844
278844
278844
278844
278844
278844
278844
278844
278844
278844
278844
278844
278844
278844
278844
277723
277723
277723
277723
277723
277723
277723
277723
277723
277723
277723
277723
277003
277003
277003
277003
277003
277003
277003
277003
276371
276371
276371
276371
276371
276371
276371
276371
276371
276371
269691
269691
269691
269691
269269
269269
269269
269269
269269
269269
269269
267264
267264
267264
267264
267264
266004
265897
265897
265897
260957
260957
260957
260957
260957
260957
260957
260957
260957
260957
254209
254209
254209
254209
254209
254209
254209
254209
254209
254209
254209
254209
254209
254209
254209
254209
254209
254209
253920
253920
253920
253920
253920
253920
253920
253641
253641
253641
253641
253641
253641
253641
253641
253641
253641
253641
253641
253641
251170
251170
251170
251170
251170
251170
251170
251170
251170
250133
250133
250133
250133
250133
250133
250133
250133
250133
246459
246459
246459
246459
246459
246459
246374
246374
246374
246374
246374
246374
246374
246374
246374
246374
246374
246374
245147
245147
245147
245147
245147
245147
245147
245147
245147
245147
245147
245147
245147
245147
245147
245147
245147
241741
241741
239808
239808
239808
239808
239808
239808
239808
239808
239808
239808
239808
239808
239808
239808
239808
239808
239808
239808
239808
236940
236940
236940
236940
236940
236940
236940
236940
236940
236940
236940
236940
236940
236940
236940
236940
236940
235424
235424
235424
235424
235424
233507
233507
233507
233507
233507
233507
233507
233507
233507
233507
233507
233507
230133
230133
230133
230133
230133
230133
230133
230133
227425
227425
227425
227425
227425
227425
227425
227425
227425
227425
227425
227059
227059
227059
227059
227059
227059
227059
227059
227059
227059
227059
227059
227059
227059
225882
225882
225882
225882
225882
225882
225882
225882
225882
224572
224572
224572
224572
224572
224572
224572
224572
224572
224572
224572
224572
224572
224572
222135
222135
222135
222135
222135
222135
222135
222135
222135
222135
222135
222061
222061
222061
222061
222061
222061
222061
220715
220715
220715
220715
220715
220715
220715
220715
220715
217962
217962
217962
217962
217962
217962
217962
217962
213308
213308
213308
213308
213308
213308
213308
208171
208171
208171
208171
208171
208171
208171
208171
206771
206771
206771
206771
206771
206771
204736
204736
204736
204736
204736
204736
204736
204736
204736
204736
204736
204736
204736
204736
204736
204736
204736
204736
204736
203404
203404
203404
203404
203404
203404
203404
203404
203404
203404
203404
202627
202627
202627
202627
202627
202627
202627
202627
202627
202627
202627
202176
202176
202176
202176
202176
202176
202176
202176
202176
202176
202176
202024
202024
202024
202024
200825
200825
200825
200825
200825
200825
200825
200825
200825
200825
199096
199096
199096
199096
196174
196174
196174
196174
196174
196174
196174
196174
196174
196174
196174
196174
196174
196174
196174
196174
196174
196174
195315
195315
195315
195315
195315
195315
195315
195315
195315
195315
195315
195315
194028
194028
194028
192969
192969
192969
192969
192969
192969
192969
192969
192969
192969
192969
192969
192969
192969
192969
192969
192969
192969
192821
192821
192821
192821
192821
192821
192821
192821
192821
192821
192821
192821
192821
192821
192821
192821
192821
192821
192821
189240
189240
189240
189240
189240
189240
189240
189240
189240
189240
189240
189240
189240
189240
189240
189240
189240
189240
189240
189240
186998
186998
186350
186350
186350
186350
186350
186350
186350
186350
186350
186350
186350
186350
186350
186350
186350
186350
186350
184979
184979
184979
184979
184979
184979
184979
184979
184979
184979
184979
184979
184979
184979
177193
177193
177193
177193
177193
177193
177193
177193
177193
177193
177193
177193
176529
176529
176529
176529
176529
176529
176529
176529
172589
172589
172589
172589
172589
172589
172589
172589
172589
172589
172589
172589
172589
172589
172589
171599
171599
171599
171599
171599
171599
171599
171599
171599
171599
171599
171599
171599
171599
171599
171599
171599
170437
170437
170437
170437
170437
170437
170437
170437
170437
170437
170437
170437
167592
167592
167592
167592
167592
167592
167592
167592
167592
167592
167592
167592
167592
167592
167592
167592
167592
167592
167592
166008
166008
166008
166008
166008
166008
166008
166008
166008
166008
166008
164074
164074
164074
164074
164074
164074
164074
164074
164074
164074
164074
164074
164074
164074
164074
164074
164074
164074
164074
162961
162961
162961
162961
162961
162961
162961
162961
162961
162961
162961
162961
162961
162961
162961
160761
160761
160761
159143
159143
159143
159143
159143
159143
155326
155326
155326
152198
152198
152198
152198
152198
152198
152198
152198
152198
152198
152198
152198
152198
152198
152198
148683
148683
148683
148683
148683
147825
147825
147825
147825
147825
147825
147825
147825
147825
147825
147825
143209
143209
143209
143209
143209
143209
139519
139519
139519
139519
139519
139519
139519
139519
139519
139519
139519
139519
139519
139519
139519
139519
139519
139519
139519
139519
132761
132761
131380
131380
131380
131380
131380
131380
131380
131380
131380
131380
130075
130075
130075
130075
130075
130075
130075
130075
130075
130075
130075
130075
130075
129663
129663
129663
129663
129663
129663
129663
129663
129663
129663
129663
129663
129663
128959
128959
128959
128959
128959
128959
128959
128959
128959
128959
128959
128959
127621
127621
127621
127621
127621
127621
127621
127621
127621
127576
127576
127576
127576
127576
127104
127104
127104
127104
127104
127104
127104
127104
127104
127104
125623
125623
125623
125623
125623
125623
125623
125623
125150
125150
125150
125150
125150
125150
125150
125150
125150
125150
125150
125150
125150
125150
125150
125150
123599
123599
123599
123599
123599
123599
123599
123599
123599
123599
123599
123599
122755
122755
122755
122755
122755
122755
122755
122755
122755
122755
122755
122755
122755
122755
122755
122755
122755
122755
122755
122676
122676
122676
122676
122676
122676
122676
122676
122676
122676
122676
122676
122205
122205
122205
122205
122205
122205
122205
122205
122205
122205
122205
122205
122205
122205
122205
122205
122205
122205
122205
116243
116243
116243
116243
116243
116243
116243
116243
116243
116243
116243
116243
115633
115633
115633
115633
115633
115633
115633
115431
115431
115431
115431
115431
115431
115431
115431
115431
115431
115431
115431
115431
115431
115431
115431
115431
115431
115431
115431
114844
114844
114844
114844
114844
114844
114844
114844
114844
114844
114844
112473
112473
112473
112473
112473
112473
112473
110900
110900
110900
110900
110900
110900
110900
110900
110900
110900
110900
110900
110900
99729
99729
99729
99729
99729
99729
99729
99729
99729
97450
97450
97450
97450
97450
96572
96572
96572
96572
96572
96572
96572
96572
96572
96132
96132
96132
96132
96132
96132
96132
96132
96132
96132
96132
96132
96132
96132
96132
96132
96132
96132
96132
96132
95941
95941
95941
95941
95941
95941
95941
95941
95941
95941
95941
95941
95941
94283
94283
94283
94283
94283
94283
94283
94283
94283
94283
94283
94283
94283
94283
94283
94283
94283
94283
94283
94283
88315
88315
88315
88315
88315
88315
88315
88315
88315
88315
88315
88315
87881
87881
87881
87881
87881
87881
87881
87881
87881
87881
87881
87881
87881
87881
87881
87881
87881
87881
87881
87025
87025
87025
87025
87025
87025
87025
87025
87025
87025
87025
87025
87025
87025
87025
87025
87025
87025
87025
85752
85752
85752
85752
85752
85752
85752
85752
85752
85752
85752
85752
85752
85752
85752
85752
85752
85752
85752
85752
85201
85201
85201
85201
85201
85201
85201
85201
84979
84979
84979
84979
84979
84979
84979
84979
84979
84979
84979
84979
84979
84979
84979
84979
84979
81359
81359
81359
81359
81359
81359
81359
81359
81359
81359
81359
81359
81359
81359
81359
81359
80068
80068
80068
80068
76871
76871
76871
76871
76871
76871
76867
76867
76867
76867
76867
76867
76867
76867
76867
76867
76867
76867
76867
76867
74740
74740
74740
74248
74248
74248
74248
66484
66484
66484
66484
66484
66484
66484
66484
66484
65403
65403
65403
65403
65403
65403
65403
65403
65403
65403
65403
65403
65403
65390
65390
65390
65390
65390
65390
65390
65390
65390
65390
65154
65154
65154
64504
64504
64504
64504
64504
64504
64504
64504
64504
64504
64504
64504
64504
62563
62563
62563
62563
62563
62563
62563
62563
62563
62563
62563
62563
62008
62008
60939
60939
60939
60939
60939
60939
60939
60939
60939
60939
60939
60939
60939
60939
60939
60939
60939
60939
60939
60939
60879
60879
60879
57410
57410
57410
57410
57410
57410
41839
41839
40569
40569
39889
39889
39889
39889
39889
39889
39889
39889
39889
39889
35850
35850
30253
30253
30253
30253
30253
30253
30253
30253
30253
30253
30253
30253
29616
29616
21364
21364
21364
21364
21364
21364
21364
21364
21364
21364
21364
21364
21364
21364
21364
21364
21364
21364
21364
21364
20915
20915
20915
20915
20915
20915
20915
20915
20915
20915
20915
20915
20915
20915
20073
20073
20073
20073
20073
20073
20073
20073
20073
20073
20073
20073
20073
19378
19378
19378
19378
19378
19378
19378
19378
19378
19378
19378
19378
19378
19378
19378
19378
19378
19378
19378
15907
15907
15907
15907
15907
15907
15907
15907
15907
15907
15907
14928
14928
14928
14928
14928
14928
14928
14928
14928
14928
14928
14928
14928
14928
14928
14928
14928
14928
14581
14581
14581
14581
14284
14284
14284
14143
14143
14143
14143
14143
14143
14143
14143
13981
13981
13981
13981
13981
13981
13981
13981
13981
13981
13122
13122
13122
13122
13122
13122
13122
13122
13122
13122
10688
10688
10688
10688
10688
10688
10688
10688
10688
10688
10688
10688
10688
10688
10688
10688
10688
10688
10688
